\Generated by Cardinal Operations

Maximize
   100 x_0_0 + 100 x_0_1 + 100 x_0_2 + 100 x_0_3 + 100 x_0_4 + 100 x_0_5 
   + 100 x_0_6 + 100 x_0_7 + 100 x_0_8 + 100 x_0_9 + 150 x_1_0 + 150 x_1_1 
   + 150 x_1_2 + 150 x_1_3 + 150 x_1_4 + 150 x_1_5 + 150 x_1_6 + 150 x_1_7 
   + 150 x_1_8 + 150 x_1_9 + 80 x_2_0 + 80 x_2_1 + 80 x_2_2 + 80 x_2_3 
   + 80 x_2_4 + 80 x_2_5 + 80 x_2_6 + 80 x_2_7 + 80 x_2_8 + 80 x_2_9 
   + 120 x_3_0 + 120 x_3_1 + 120 x_3_2 + 120 x_3_3 + 120 x_3_4 + 120 x_3_5 
   + 120 x_3_6 + 120 x_3_7 + 120 x_3_8 + 120 x_3_9 + 130 x_4_0 + 130 x_4_1 
   + 130 x_4_2 + 130 x_4_3 + 130 x_4_4 + 130 x_4_5 + 130 x_4_6 + 130 x_4_7 
   + 130 x_4_8 + 130 x_4_9 + 110 x_5_0 + 110 x_5_1 + 110 x_5_2 + 110 x_5_3 
   + 110 x_5_4 + 110 x_5_5 + 110 x_5_6 + 110 x_5_7 + 110 x_5_8 + 110 x_5_9 
   + 160 x_6_0 + 160 x_6_1 + 160 x_6_2 + 160 x_6_3 + 160 x_6_4 + 160 x_6_5 
   + 160 x_6_6 + 160 x_6_7 + 160 x_6_8 + 160 x_6_9 + 90 x_7_0 + 90 x_7_1 
   + 90 x_7_2 + 90 x_7_3 + 90 x_7_4 + 90 x_7_5 + 90 x_7_6 + 90 x_7_7 
   + 90 x_7_8 + 90 x_7_9 + 95 x_8_0 + 95 x_8_1 + 95 x_8_2 + 95 x_8_3 
   + 95 x_8_4 + 95 x_8_5 + 95 x_8_6 + 95 x_8_7 + 95 x_8_8 + 95 x_8_9 
   + 105 x_9_0 + 105 x_9_1 + 105 x_9_2 + 105 x_9_3 + 105 x_9_4 + 105 x_9_5 
   + 105 x_9_6 + 105 x_9_7 + 105 x_9_8 + 105 x_9_9 + 85 x_10_0 + 85 x_10_1 
   + 85 x_10_2 + 85 x_10_3 + 85 x_10_4 + 85 x_10_5 + 85 x_10_6 + 85 x_10_7 
   + 85 x_10_8 + 85 x_10_9 + 140 x_11_0 + 140 x_11_1 + 140 x_11_2 
   + 140 x_11_3 + 140 x_11_4 + 140 x_11_5 + 140 x_11_6 + 140 x_11_7 
   + 140 x_11_8 + 140 x_11_9 + 75 x_12_0 + 75 x_12_1 + 75 x_12_2 
   + 75 x_12_3 + 75 x_12_4 + 75 x_12_5 + 75 x_12_6 + 75 x_12_7 + 75 x_12_8 
   + 75 x_12_9 + 60 x_13_0 + 60 x_13_1 + 60 x_13_2 + 60 x_13_3 + 60 x_13_4 
   + 60 x_13_5 + 60 x_13_6 + 60 x_13_7 + 60 x_13_8 + 60 x_13_9 + 170 x_14_0 
   + 170 x_14_1 + 170 x_14_2 + 170 x_14_3 + 170 x_14_4 + 170 x_14_5 
   + 170 x_14_6 + 170 x_14_7 + 170 x_14_8 + 170 x_14_9 + 115 x_15_0 
   + 115 x_15_1 + 115 x_15_2 + 115 x_15_3 + 115 x_15_4 + 115 x_15_5 
   + 115 x_15_6 + 115 x_15_7 + 115 x_15_8 + 115 x_15_9 + 155 x_16_0 
   + 155 x_16_1 + 155 x_16_2 + 155 x_16_3 + 155 x_16_4 + 155 x_16_5 
   + 155 x_16_6 + 155 x_16_7 + 155 x_16_8 + 155 x_16_9 + 125 x_17_0 
   + 125 x_17_1 + 125 x_17_2 + 125 x_17_3 + 125 x_17_4 + 125 x_17_5 
   + 125 x_17_6 + 125 x_17_7 + 125 x_17_8 + 125 x_17_9 
Subject To
 capacity_constraint: x_0_0 + 1.5 x_1_0 + 1.2 x_2_0 + 1.3 x_3_0 + 1.4 x_4_0 
   + 1.1 x_5_0 + 1.8 x_6_0 + 1.2 x_7_0 + x_8_0 + 1.3 x_9_0 + 1.2 x_10_0 
   + 1.5 x_11_0 + 1.1 x_12_0 + x_13_0 + 1.6 x_14_0 + 1.4 x_15_0 
   + 1.7 x_16_0 + 1.3 x_17_0 <= 400
 x_0_1 + 1.5 x_1_1 + 1.2 x_2_1 + 1.3 x_3_1 + 1.4 x_4_1 + 1.1 x_5_1 
   + 1.8 x_6_1 + 1.2 x_7_1 + x_8_1 + 1.3 x_9_1 + 1.2 x_10_1 + 1.5 x_11_1 
   + 1.1 x_12_1 + x_13_1 + 1.6 x_14_1 + 1.4 x_15_1 + 1.7 x_16_1 
   + 1.3 x_17_1 <= 600
 x_0_2 + 1.5 x_1_2 + 1.2 x_2_2 + 1.3 x_3_2 + 1.4 x_4_2 + 1.1 x_5_2 
   + 1.8 x_6_2 + 1.2 x_7_2 + x_8_2 + 1.3 x_9_2 + 1.2 x_10_2 + 1.5 x_11_2 
   + 1.1 x_12_2 + x_13_2 + 1.6 x_14_2 + 1.4 x_15_2 + 1.7 x_16_2 
   + 1.3 x_17_2 <= 500
 x_0_3 + 1.5 x_1_3 + 1.2 x_2_3 + 1.3 x_3_3 + 1.4 x_4_3 + 1.1 x_5_3 
   + 1.8 x_6_3 + 1.2 x_7_3 + x_8_3 + 1.3 x_9_3 + 1.2 x_10_3 + 1.5 x_11_3 
   + 1.1 x_12_3 + x_13_3 + 1.6 x_14_3 + 1.4 x_15_3 + 1.7 x_16_3 
   + 1.3 x_17_3 <= 700
 x_0_4 + 1.5 x_1_4 + 1.2 x_2_4 + 1.3 x_3_4 + 1.4 x_4_4 + 1.1 x_5_4 
   + 1.8 x_6_4 + 1.2 x_7_4 + x_8_4 + 1.3 x_9_4 + 1.2 x_10_4 + 1.5 x_11_4 
   + 1.1 x_12_4 + x_13_4 + 1.6 x_14_4 + 1.4 x_15_4 + 1.7 x_16_4 
   + 1.3 x_17_4 <= 450
 x_0_5 + 1.5 x_1_5 + 1.2 x_2_5 + 1.3 x_3_5 + 1.4 x_4_5 + 1.1 x_5_5 
   + 1.8 x_6_5 + 1.2 x_7_5 + x_8_5 + 1.3 x_9_5 + 1.2 x_10_5 + 1.5 x_11_5 
   + 1.1 x_12_5 + x_13_5 + 1.6 x_14_5 + 1.4 x_15_5 + 1.7 x_16_5 
   + 1.3 x_17_5 <= 650
 x_0_6 + 1.5 x_1_6 + 1.2 x_2_6 + 1.3 x_3_6 + 1.4 x_4_6 + 1.1 x_5_6 
   + 1.8 x_6_6 + 1.2 x_7_6 + x_8_6 + 1.3 x_9_6 + 1.2 x_10_6 + 1.5 x_11_6 
   + 1.1 x_12_6 + x_13_6 + 1.6 x_14_6 + 1.4 x_15_6 + 1.7 x_16_6 
   + 1.3 x_17_6 <= 550
 x_0_7 + 1.5 x_1_7 + 1.2 x_2_7 + 1.3 x_3_7 + 1.4 x_4_7 + 1.1 x_5_7 
   + 1.8 x_6_7 + 1.2 x_7_7 + x_8_7 + 1.3 x_9_7 + 1.2 x_10_7 + 1.5 x_11_7 
   + 1.1 x_12_7 + x_13_7 + 1.6 x_14_7 + 1.4 x_15_7 + 1.7 x_16_7 
   + 1.3 x_17_7 <= 750
 x_0_8 + 1.5 x_1_8 + 1.2 x_2_8 + 1.3 x_3_8 + 1.4 x_4_8 + 1.1 x_5_8 
   + 1.8 x_6_8 + 1.2 x_7_8 + x_8_8 + 1.3 x_9_8 + 1.2 x_10_8 + 1.5 x_11_8 
   + 1.1 x_12_8 + x_13_8 + 1.6 x_14_8 + 1.4 x_15_8 + 1.7 x_16_8 
   + 1.3 x_17_8 <= 480
 x_0_9 + 1.5 x_1_9 + 1.2 x_2_9 + 1.3 x_3_9 + 1.4 x_4_9 + 1.1 x_5_9 
   + 1.8 x_6_9 + 1.2 x_7_9 + x_8_9 + 1.3 x_9_9 + 1.2 x_10_9 + 1.5 x_11_9 
   + 1.1 x_12_9 + x_13_9 + 1.6 x_14_9 + 1.4 x_15_9 + 1.7 x_16_9 
   + 1.3 x_17_9 <= 520
Generals
 x_0_0  x_0_1  x_0_2  x_0_3  x_0_4  x_0_5  x_0_6  x_0_7  x_0_8  x_0_9  
 x_1_0  x_1_1  x_1_2  x_1_3  x_1_4  x_1_5  x_1_6  x_1_7  x_1_8  x_1_9  
 x_2_0  x_2_1  x_2_2  x_2_3  x_2_4  x_2_5  x_2_6  x_2_7  x_2_8  x_2_9  
 x_3_0  x_3_1  x_3_2  x_3_3  x_3_4  x_3_5  x_3_6  x_3_7  x_3_8  x_3_9  
 x_4_0  x_4_1  x_4_2  x_4_3  x_4_4  x_4_5  x_4_6  x_4_7  x_4_8  x_4_9  
 x_5_0  x_5_1  x_5_2  x_5_3  x_5_4  x_5_5  x_5_6  x_5_7  x_5_8  x_5_9  
 x_6_0  x_6_1  x_6_2  x_6_3  x_6_4  x_6_5  x_6_6  x_6_7  x_6_8  x_6_9  
 x_7_0  x_7_1  x_7_2  x_7_3  x_7_4  x_7_5  x_7_6  x_7_7  x_7_8  x_7_9  
 x_8_0  x_8_1  x_8_2  x_8_3  x_8_4  x_8_5  x_8_6  x_8_7  x_8_8  x_8_9  
 x_9_0  x_9_1  x_9_2  x_9_3  x_9_4  x_9_5  x_9_6  x_9_7  x_9_8  x_9_9  
 x_10_0  x_10_1  x_10_2  x_10_3  x_10_4  x_10_5  x_10_6  x_10_7  x_10_8  
 x_10_9  x_11_0  x_11_1  x_11_2  x_11_3  x_11_4  x_11_5  x_11_6  x_11_7  
 x_11_8  x_11_9  x_12_0  x_12_1  x_12_2  x_12_3  x_12_4  x_12_5  x_12_6  
 x_12_7  x_12_8  x_12_9  x_13_0  x_13_1  x_13_2  x_13_3  x_13_4  x_13_5  
 x_13_6  x_13_7  x_13_8  x_13_9  x_14_0  x_14_1  x_14_2  x_14_3  x_14_4  
 x_14_5  x_14_6  x_14_7  x_14_8  x_14_9  x_15_0  x_15_1  x_15_2  x_15_3  
 x_15_4  x_15_5  x_15_6  x_15_7  x_15_8  x_15_9  x_16_0  x_16_1  x_16_2  
 x_16_3  x_16_4  x_16_5  x_16_6  x_16_7  x_16_8  x_16_9  x_17_0  x_17_1  
 x_17_2  x_17_3  x_17_4  x_17_5  x_17_6  x_17_7  x_17_8  x_17_9  
END

